SYSTEM = "VASP"
NELMIN = 4
NELM = 201
EDIFF = 1E-6
EDIFFG = 1E-5
ISMEAR = -1
SIGMA = 0.001
NSW = 0
ISIF = 2
IBRION = 2
ICHARG = 11
LCHARG = .FALSE.
LREAL = .FALSE.
IVDW  = replace_vdW
ENCUT = replace_encut
LORBIT = 11
LVTOT = .TRUE.
NCORE = 8