SYSTEM = "VASP"
NELMIN = 4
NELM = 201
EDIFF = 1E-4
EDIFFG = 1E-3
ISMEAR = -1
SIGMA = 0.001
NSW = 0
ISIF = 2
IBRION = 2
LREAL = .FALSE.
IVDW  = replace_vdW
ENCUT = replace_encut
# KSPACING
# KGAMMA
LORBIT = 11
NCORE = 8